
  22   10
  10   10   10   10   10   10   10   10   10   10

   0   0   0   0   0   0   0   0   0   0   0   4 2 4 5 6 
   9   0  10   0   0   0   0   0   0   0   0   1 3 
   7   0   0   0   0   0   0   0   0   0  10   2 14 7 
   2   0  10   0   0   0   0   0   0   0   0   2 14 8 
  10   0   0   0   0  10   0   0   0   0   0   1 7 
  10  10   0   0   0   0   0   0   0   0   0   2 14 9 
   2   0   0   0   0   0  10   0   0   0   0   1 8 
   1   0   0   0   0   0   0   0   0   0  10   1 9 
   2   0   0   0   0  10   0   0   0   0   0   2 21 10 
   2  10   0   0   0   0   0   0   0   0   0   3 17 12 11 
   7   0   0   0   0   0   0   0   0   0  10   3 20 15 13 
   3   0   0   0   0  10   0   0   0   0   0   3 20 19 16 
   5   0   0   0   0   0  10   0   0   0   0   2 19 18 
   2  10   0   0   0   0   0   0   0   0   0   2 19 18 
   3   0   0   0   0   0  10   0   0   0   0   1 16 
   6   0   0  10   0   0   0   0   0   0   0   1 18 
   1   0   0   0   0   0  10   0   0   0   0   1 20 
   9   0   0   0   0   0   0   0   0   0  10   1 22
  10   0  10   0   0   0   0   0   0   0   0   1 22
  10   0   0   0   0   0   0  10   0   0   0   1 22
   7   0   0   0   0   0   0   0   0   0  10   1 22
   0   0   0   0   0   0   0   0   0   0   0   0 
